p cnf 284 1388
1 4 9 14 19 24 29 34 39 44 49 54 59 64 69 74 79 84 89 94 99 104 109 114 0
-1 -4 0
-1 -9 0
-1 -14 0
-1 -19 0
-1 -24 0
-1 -29 0
-1 -34 0
-1 -39 0
-1 -44 0
-1 -49 0
-1 -54 0
-1 -59 0
-1 -64 0
-1 -69 0
-1 -74 0
-1 -79 0
-1 -84 0
-1 -89 0
-1 -94 0
-1 -99 0
-1 -104 0
-1 -109 0
-1 -114 0
-4 -9 0
-4 -14 0
-4 -19 0
-4 -24 0
-4 -29 0
-4 -34 0
-4 -39 0
-4 -44 0
-4 -49 0
-4 -54 0
-4 -59 0
-4 -64 0
-4 -69 0
-4 -74 0
-4 -79 0
-4 -84 0
-4 -89 0
-4 -94 0
-4 -99 0
-4 -104 0
-4 -109 0
-4 -114 0
-9 -14 0
-9 -19 0
-9 -24 0
-9 -29 0
-9 -34 0
-9 -39 0
-9 -44 0
-9 -49 0
-9 -54 0
-9 -59 0
-9 -64 0
-9 -69 0
-9 -74 0
-9 -79 0
-9 -84 0
-9 -89 0
-9 -94 0
-9 -99 0
-9 -104 0
-9 -109 0
-9 -114 0
-14 -19 0
-14 -24 0
-14 -29 0
-14 -34 0
-14 -39 0
-14 -44 0
-14 -49 0
-14 -54 0
-14 -59 0
-14 -64 0
-14 -69 0
-14 -74 0
-14 -79 0
-14 -84 0
-14 -89 0
-14 -94 0
-14 -99 0
-14 -104 0
-14 -109 0
-14 -114 0
-19 -24 0
-19 -29 0
-19 -34 0
-19 -39 0
-19 -44 0
-19 -49 0
-19 -54 0
-19 -59 0
-19 -64 0
-19 -69 0
-19 -74 0
-19 -79 0
-19 -84 0
-19 -89 0
-19 -94 0
-19 -99 0
-19 -104 0
-19 -109 0
-19 -114 0
-24 -29 0
-24 -34 0
-24 -39 0
-24 -44 0
-24 -49 0
-24 -54 0
-24 -59 0
-24 -64 0
-24 -69 0
-24 -74 0
-24 -79 0
-24 -84 0
-24 -89 0
-24 -94 0
-24 -99 0
-24 -104 0
-24 -109 0
-24 -114 0
-29 -34 0
-29 -39 0
-29 -44 0
-29 -49 0
-29 -54 0
-29 -59 0
-29 -64 0
-29 -69 0
-29 -74 0
-29 -79 0
-29 -84 0
-29 -89 0
-29 -94 0
-29 -99 0
-29 -104 0
-29 -109 0
-29 -114 0
-34 -39 0
-34 -44 0
-34 -49 0
-34 -54 0
-34 -59 0
-34 -64 0
-34 -69 0
-34 -74 0
-34 -79 0
-34 -84 0
-34 -89 0
-34 -94 0
-34 -99 0
-34 -104 0
-34 -109 0
-34 -114 0
-39 -44 0
-39 -49 0
-39 -54 0
-39 -59 0
-39 -64 0
-39 -69 0
-39 -74 0
-39 -79 0
-39 -84 0
-39 -89 0
-39 -94 0
-39 -99 0
-39 -104 0
-39 -109 0
-39 -114 0
-44 -49 0
-44 -54 0
-44 -59 0
-44 -64 0
-44 -69 0
-44 -74 0
-44 -79 0
-44 -84 0
-44 -89 0
-44 -94 0
-44 -99 0
-44 -104 0
-44 -109 0
-44 -114 0
-49 -54 0
-49 -59 0
-49 -64 0
-49 -69 0
-49 -74 0
-49 -79 0
-49 -84 0
-49 -89 0
-49 -94 0
-49 -99 0
-49 -104 0
-49 -109 0
-49 -114 0
-54 -59 0
-54 -64 0
-54 -69 0
-54 -74 0
-54 -79 0
-54 -84 0
-54 -89 0
-54 -94 0
-54 -99 0
-54 -104 0
-54 -109 0
-54 -114 0
-59 -64 0
-59 -69 0
-59 -74 0
-59 -79 0
-59 -84 0
-59 -89 0
-59 -94 0
-59 -99 0
-59 -104 0
-59 -109 0
-59 -114 0
-64 -69 0
-64 -74 0
-64 -79 0
-64 -84 0
-64 -89 0
-64 -94 0
-64 -99 0
-64 -104 0
-64 -109 0
-64 -114 0
-69 -74 0
-69 -79 0
-69 -84 0
-69 -89 0
-69 -94 0
-69 -99 0
-69 -104 0
-69 -109 0
-69 -114 0
-74 -79 0
-74 -84 0
-74 -89 0
-74 -94 0
-74 -99 0
-74 -104 0
-74 -109 0
-74 -114 0
-79 -84 0
-79 -89 0
-79 -94 0
-79 -99 0
-79 -104 0
-79 -109 0
-79 -114 0
-84 -89 0
-84 -94 0
-84 -99 0
-84 -104 0
-84 -109 0
-84 -114 0
-89 -94 0
-89 -99 0
-89 -104 0
-89 -109 0
-89 -114 0
-94 -99 0
-94 -104 0
-94 -109 0
-94 -114 0
-99 -104 0
-99 -109 0
-99 -114 0
-104 -109 0
-104 -114 0
-109 -114 0
117 120 125 130 135 140 145 150 155 160 165 170 175 180 185 190 195 200 205 210 215 220 225 230 0
-117 -120 0
-117 -125 0
-117 -130 0
-117 -135 0
-117 -140 0
-117 -145 0
-117 -150 0
-117 -155 0
-117 -160 0
-117 -165 0
-117 -170 0
-117 -175 0
-117 -180 0
-117 -185 0
-117 -190 0
-117 -195 0
-117 -200 0
-117 -205 0
-117 -210 0
-117 -215 0
-117 -220 0
-117 -225 0
-117 -230 0
-120 -125 0
-120 -130 0
-120 -135 0
-120 -140 0
-120 -145 0
-120 -150 0
-120 -155 0
-120 -160 0
-120 -165 0
-120 -170 0
-120 -175 0
-120 -180 0
-120 -185 0
-120 -190 0
-120 -195 0
-120 -200 0
-120 -205 0
-120 -210 0
-120 -215 0
-120 -220 0
-120 -225 0
-120 -230 0
-125 -130 0
-125 -135 0
-125 -140 0
-125 -145 0
-125 -150 0
-125 -155 0
-125 -160 0
-125 -165 0
-125 -170 0
-125 -175 0
-125 -180 0
-125 -185 0
-125 -190 0
-125 -195 0
-125 -200 0
-125 -205 0
-125 -210 0
-125 -215 0
-125 -220 0
-125 -225 0
-125 -230 0
-130 -135 0
-130 -140 0
-130 -145 0
-130 -150 0
-130 -155 0
-130 -160 0
-130 -165 0
-130 -170 0
-130 -175 0
-130 -180 0
-130 -185 0
-130 -190 0
-130 -195 0
-130 -200 0
-130 -205 0
-130 -210 0
-130 -215 0
-130 -220 0
-130 -225 0
-130 -230 0
-135 -140 0
-135 -145 0
-135 -150 0
-135 -155 0
-135 -160 0
-135 -165 0
-135 -170 0
-135 -175 0
-135 -180 0
-135 -185 0
-135 -190 0
-135 -195 0
-135 -200 0
-135 -205 0
-135 -210 0
-135 -215 0
-135 -220 0
-135 -225 0
-135 -230 0
-140 -145 0
-140 -150 0
-140 -155 0
-140 -160 0
-140 -165 0
-140 -170 0
-140 -175 0
-140 -180 0
-140 -185 0
-140 -190 0
-140 -195 0
-140 -200 0
-140 -205 0
-140 -210 0
-140 -215 0
-140 -220 0
-140 -225 0
-140 -230 0
-145 -150 0
-145 -155 0
-145 -160 0
-145 -165 0
-145 -170 0
-145 -175 0
-145 -180 0
-145 -185 0
-145 -190 0
-145 -195 0
-145 -200 0
-145 -205 0
-145 -210 0
-145 -215 0
-145 -220 0
-145 -225 0
-145 -230 0
-150 -155 0
-150 -160 0
-150 -165 0
-150 -170 0
-150 -175 0
-150 -180 0
-150 -185 0
-150 -190 0
-150 -195 0
-150 -200 0
-150 -205 0
-150 -210 0
-150 -215 0
-150 -220 0
-150 -225 0
-150 -230 0
-155 -160 0
-155 -165 0
-155 -170 0
-155 -175 0
-155 -180 0
-155 -185 0
-155 -190 0
-155 -195 0
-155 -200 0
-155 -205 0
-155 -210 0
-155 -215 0
-155 -220 0
-155 -225 0
-155 -230 0
-160 -165 0
-160 -170 0
-160 -175 0
-160 -180 0
-160 -185 0
-160 -190 0
-160 -195 0
-160 -200 0
-160 -205 0
-160 -210 0
-160 -215 0
-160 -220 0
-160 -225 0
-160 -230 0
-165 -170 0
-165 -175 0
-165 -180 0
-165 -185 0
-165 -190 0
-165 -195 0
-165 -200 0
-165 -205 0
-165 -210 0
-165 -215 0
-165 -220 0
-165 -225 0
-165 -230 0
-170 -175 0
-170 -180 0
-170 -185 0
-170 -190 0
-170 -195 0
-170 -200 0
-170 -205 0
-170 -210 0
-170 -215 0
-170 -220 0
-170 -225 0
-170 -230 0
-175 -180 0
-175 -185 0
-175 -190 0
-175 -195 0
-175 -200 0
-175 -205 0
-175 -210 0
-175 -215 0
-175 -220 0
-175 -225 0
-175 -230 0
-180 -185 0
-180 -190 0
-180 -195 0
-180 -200 0
-180 -205 0
-180 -210 0
-180 -215 0
-180 -220 0
-180 -225 0
-180 -230 0
-185 -190 0
-185 -195 0
-185 -200 0
-185 -205 0
-185 -210 0
-185 -215 0
-185 -220 0
-185 -225 0
-185 -230 0
-190 -195 0
-190 -200 0
-190 -205 0
-190 -210 0
-190 -215 0
-190 -220 0
-190 -225 0
-190 -230 0
-195 -200 0
-195 -205 0
-195 -210 0
-195 -215 0
-195 -220 0
-195 -225 0
-195 -230 0
-200 -205 0
-200 -210 0
-200 -215 0
-200 -220 0
-200 -225 0
-200 -230 0
-205 -210 0
-205 -215 0
-205 -220 0
-205 -225 0
-205 -230 0
-210 -215 0
-210 -220 0
-210 -225 0
-210 -230 0
-215 -220 0
-215 -225 0
-215 -230 0
-220 -225 0
-220 -230 0
-225 -230 0
-1 -281 -233 0
-1 -281 234 0
-4 -281 -234 0
-4 -281 235 0
-9 -281 -235 0
-9 -281 236 0
-14 -281 -236 0
-14 -281 237 0
-19 -281 -237 0
-19 -281 238 0
-24 -281 -238 0
-24 -281 239 0
-29 -281 -239 0
-29 -281 240 0
-34 -281 -240 0
-34 -281 241 0
-39 -281 -241 0
-39 -281 242 0
-44 -281 -242 0
-44 -281 243 0
-49 -281 -243 0
-49 -281 244 0
-54 -281 -244 0
-54 -281 245 0
-59 -281 -245 0
-59 -281 246 0
-64 -281 -246 0
-64 -281 247 0
-69 -281 -247 0
-69 -281 248 0
-74 -281 -248 0
-74 -281 249 0
-79 -281 -249 0
-79 -281 250 0
-84 -281 -250 0
-84 -281 251 0
-89 -281 -251 0
-89 -281 252 0
-94 -281 -252 0
-94 -281 253 0
-99 -281 -253 0
-99 -281 254 0
-104 -281 -254 0
-104 -281 255 0
-109 -281 -255 0
-109 -281 256 0
-4 -282 -234 0
-4 -282 233 0
-9 -282 -235 0
-9 -282 234 0
-14 -282 -236 0
-14 -282 235 0
-19 -282 -237 0
-19 -282 236 0
-24 -282 -238 0
-24 -282 237 0
-29 -282 -239 0
-29 -282 238 0
-34 -282 -240 0
-34 -282 239 0
-39 -282 -241 0
-39 -282 240 0
-44 -282 -242 0
-44 -282 241 0
-49 -282 -243 0
-49 -282 242 0
-54 -282 -244 0
-54 -282 243 0
-59 -282 -245 0
-59 -282 244 0
-64 -282 -246 0
-64 -282 245 0
-69 -282 -247 0
-69 -282 246 0
-74 -282 -248 0
-74 -282 247 0
-79 -282 -249 0
-79 -282 248 0
-84 -282 -250 0
-84 -282 249 0
-89 -282 -251 0
-89 -282 250 0
-94 -282 -252 0
-94 -282 251 0
-99 -282 -253 0
-99 -282 252 0
-104 -282 -254 0
-104 -282 253 0
-109 -282 -255 0
-109 -282 254 0
-114 -282 -256 0
-114 -282 255 0
-117 -283 -257 0
-117 -283 258 0
-120 -283 -258 0
-120 -283 259 0
-125 -283 -259 0
-125 -283 260 0
-130 -283 -260 0
-130 -283 261 0
-135 -283 -261 0
-135 -283 262 0
-140 -283 -262 0
-140 -283 263 0
-145 -283 -263 0
-145 -283 264 0
-150 -283 -264 0
-150 -283 265 0
-155 -283 -265 0
-155 -283 266 0
-160 -283 -266 0
-160 -283 267 0
-165 -283 -267 0
-165 -283 268 0
-170 -283 -268 0
-170 -283 269 0
-175 -283 -269 0
-175 -283 270 0
-180 -283 -270 0
-180 -283 271 0
-185 -283 -271 0
-185 -283 272 0
-190 -283 -272 0
-190 -283 273 0
-195 -283 -273 0
-195 -283 274 0
-200 -283 -274 0
-200 -283 275 0
-205 -283 -275 0
-205 -283 276 0
-210 -283 -276 0
-210 -283 277 0
-215 -283 -277 0
-215 -283 278 0
-220 -283 -278 0
-220 -283 279 0
-225 -283 -279 0
-225 -283 280 0
-120 -284 -258 0
-120 -284 257 0
-125 -284 -259 0
-125 -284 258 0
-130 -284 -260 0
-130 -284 259 0
-135 -284 -261 0
-135 -284 260 0
-140 -284 -262 0
-140 -284 261 0
-145 -284 -263 0
-145 -284 262 0
-150 -284 -264 0
-150 -284 263 0
-155 -284 -265 0
-155 -284 264 0
-160 -284 -266 0
-160 -284 265 0
-165 -284 -267 0
-165 -284 266 0
-170 -284 -268 0
-170 -284 267 0
-175 -284 -269 0
-175 -284 268 0
-180 -284 -270 0
-180 -284 269 0
-185 -284 -271 0
-185 -284 270 0
-190 -284 -272 0
-190 -284 271 0
-195 -284 -273 0
-195 -284 272 0
-200 -284 -274 0
-200 -284 273 0
-205 -284 -275 0
-205 -284 274 0
-210 -284 -276 0
-210 -284 275 0
-215 -284 -277 0
-215 -284 276 0
-220 -284 -278 0
-220 -284 277 0
-225 -284 -279 0
-225 -284 278 0
-230 -284 -280 0
-230 -284 279 0
-1 -281 2 0
-2 1 0
-2 281 0
2 -1 233 0
-4 -282 3 0
-3 4 0
-3 282 0
3 1 -233 0
-4 -281 5 0
-5 4 0
-5 281 0
-4 -282 6 0
-6 4 0
-6 282 0
5 6 -4 234 0
-1 -281 7 0
-7 1 0
-7 281 0
-9 -282 8 0
-8 9 0
-8 282 0
7 8 4 -234 0
-9 -281 10 0
-10 9 0
-10 281 0
-9 -282 11 0
-11 9 0
-11 282 0
10 11 -9 235 0
-4 -281 12 0
-12 4 0
-12 281 0
-14 -282 13 0
-13 14 0
-13 282 0
12 13 9 -235 0
-14 -281 15 0
-15 14 0
-15 281 0
-14 -282 16 0
-16 14 0
-16 282 0
15 16 -14 236 0
-9 -281 17 0
-17 9 0
-17 281 0
-19 -282 18 0
-18 19 0
-18 282 0
17 18 14 -236 0
-19 -281 20 0
-20 19 0
-20 281 0
-19 -282 21 0
-21 19 0
-21 282 0
20 21 -19 237 0
-14 -281 22 0
-22 14 0
-22 281 0
-24 -282 23 0
-23 24 0
-23 282 0
22 23 19 -237 0
-24 -281 25 0
-25 24 0
-25 281 0
-24 -282 26 0
-26 24 0
-26 282 0
25 26 -24 238 0
-19 -281 27 0
-27 19 0
-27 281 0
-29 -282 28 0
-28 29 0
-28 282 0
27 28 24 -238 0
-29 -281 30 0
-30 29 0
-30 281 0
-29 -282 31 0
-31 29 0
-31 282 0
30 31 -29 239 0
-24 -281 32 0
-32 24 0
-32 281 0
-34 -282 33 0
-33 34 0
-33 282 0
32 33 29 -239 0
-34 -281 35 0
-35 34 0
-35 281 0
-34 -282 36 0
-36 34 0
-36 282 0
35 36 -34 240 0
-29 -281 37 0
-37 29 0
-37 281 0
-39 -282 38 0
-38 39 0
-38 282 0
37 38 34 -240 0
-39 -281 40 0
-40 39 0
-40 281 0
-39 -282 41 0
-41 39 0
-41 282 0
40 41 -39 241 0
-34 -281 42 0
-42 34 0
-42 281 0
-44 -282 43 0
-43 44 0
-43 282 0
42 43 39 -241 0
-44 -281 45 0
-45 44 0
-45 281 0
-44 -282 46 0
-46 44 0
-46 282 0
45 46 -44 242 0
-39 -281 47 0
-47 39 0
-47 281 0
-49 -282 48 0
-48 49 0
-48 282 0
47 48 44 -242 0
-49 -281 50 0
-50 49 0
-50 281 0
-49 -282 51 0
-51 49 0
-51 282 0
50 51 -49 243 0
-44 -281 52 0
-52 44 0
-52 281 0
-54 -282 53 0
-53 54 0
-53 282 0
52 53 49 -243 0
-54 -281 55 0
-55 54 0
-55 281 0
-54 -282 56 0
-56 54 0
-56 282 0
55 56 -54 244 0
-49 -281 57 0
-57 49 0
-57 281 0
-59 -282 58 0
-58 59 0
-58 282 0
57 58 54 -244 0
-59 -281 60 0
-60 59 0
-60 281 0
-59 -282 61 0
-61 59 0
-61 282 0
60 61 -59 245 0
-54 -281 62 0
-62 54 0
-62 281 0
-64 -282 63 0
-63 64 0
-63 282 0
62 63 59 -245 0
-64 -281 65 0
-65 64 0
-65 281 0
-64 -282 66 0
-66 64 0
-66 282 0
65 66 -64 246 0
-59 -281 67 0
-67 59 0
-67 281 0
-69 -282 68 0
-68 69 0
-68 282 0
67 68 64 -246 0
-69 -281 70 0
-70 69 0
-70 281 0
-69 -282 71 0
-71 69 0
-71 282 0
70 71 -69 247 0
-64 -281 72 0
-72 64 0
-72 281 0
-74 -282 73 0
-73 74 0
-73 282 0
72 73 69 -247 0
-74 -281 75 0
-75 74 0
-75 281 0
-74 -282 76 0
-76 74 0
-76 282 0
75 76 -74 248 0
-69 -281 77 0
-77 69 0
-77 281 0
-79 -282 78 0
-78 79 0
-78 282 0
77 78 74 -248 0
-79 -281 80 0
-80 79 0
-80 281 0
-79 -282 81 0
-81 79 0
-81 282 0
80 81 -79 249 0
-74 -281 82 0
-82 74 0
-82 281 0
-84 -282 83 0
-83 84 0
-83 282 0
82 83 79 -249 0
-84 -281 85 0
-85 84 0
-85 281 0
-84 -282 86 0
-86 84 0
-86 282 0
85 86 -84 250 0
-79 -281 87 0
-87 79 0
-87 281 0
-89 -282 88 0
-88 89 0
-88 282 0
87 88 84 -250 0
-89 -281 90 0
-90 89 0
-90 281 0
-89 -282 91 0
-91 89 0
-91 282 0
90 91 -89 251 0
-84 -281 92 0
-92 84 0
-92 281 0
-94 -282 93 0
-93 94 0
-93 282 0
92 93 89 -251 0
-94 -281 95 0
-95 94 0
-95 281 0
-94 -282 96 0
-96 94 0
-96 282 0
95 96 -94 252 0
-89 -281 97 0
-97 89 0
-97 281 0
-99 -282 98 0
-98 99 0
-98 282 0
97 98 94 -252 0
-99 -281 100 0
-100 99 0
-100 281 0
-99 -282 101 0
-101 99 0
-101 282 0
100 101 -99 253 0
-94 -281 102 0
-102 94 0
-102 281 0
-104 -282 103 0
-103 104 0
-103 282 0
102 103 99 -253 0
-104 -281 105 0
-105 104 0
-105 281 0
-104 -282 106 0
-106 104 0
-106 282 0
105 106 -104 254 0
-99 -281 107 0
-107 99 0
-107 281 0
-109 -282 108 0
-108 109 0
-108 282 0
107 108 104 -254 0
-109 -281 110 0
-110 109 0
-110 281 0
-109 -282 111 0
-111 109 0
-111 282 0
110 111 -109 255 0
-104 -281 112 0
-112 104 0
-112 281 0
-114 -282 113 0
-113 114 0
-113 282 0
112 113 109 -255 0
-114 -282 115 0
-115 114 0
-115 282 0
115 -114 256 0
-109 -281 116 0
-116 109 0
-116 281 0
116 114 -256 0
-117 -283 118 0
-118 117 0
-118 283 0
118 -117 257 0
-120 -284 119 0
-119 120 0
-119 284 0
119 117 -257 0
-120 -283 121 0
-121 120 0
-121 283 0
-120 -284 122 0
-122 120 0
-122 284 0
121 122 -120 258 0
-117 -283 123 0
-123 117 0
-123 283 0
-125 -284 124 0
-124 125 0
-124 284 0
123 124 120 -258 0
-125 -283 126 0
-126 125 0
-126 283 0
-125 -284 127 0
-127 125 0
-127 284 0
126 127 -125 259 0
-120 -283 128 0
-128 120 0
-128 283 0
-130 -284 129 0
-129 130 0
-129 284 0
128 129 125 -259 0
-130 -283 131 0
-131 130 0
-131 283 0
-130 -284 132 0
-132 130 0
-132 284 0
131 132 -130 260 0
-125 -283 133 0
-133 125 0
-133 283 0
-135 -284 134 0
-134 135 0
-134 284 0
133 134 130 -260 0
-135 -283 136 0
-136 135 0
-136 283 0
-135 -284 137 0
-137 135 0
-137 284 0
136 137 -135 261 0
-130 -283 138 0
-138 130 0
-138 283 0
-140 -284 139 0
-139 140 0
-139 284 0
138 139 135 -261 0
-140 -283 141 0
-141 140 0
-141 283 0
-140 -284 142 0
-142 140 0
-142 284 0
141 142 -140 262 0
-135 -283 143 0
-143 135 0
-143 283 0
-145 -284 144 0
-144 145 0
-144 284 0
143 144 140 -262 0
-145 -283 146 0
-146 145 0
-146 283 0
-145 -284 147 0
-147 145 0
-147 284 0
146 147 -145 263 0
-140 -283 148 0
-148 140 0
-148 283 0
-150 -284 149 0
-149 150 0
-149 284 0
148 149 145 -263 0
-150 -283 151 0
-151 150 0
-151 283 0
-150 -284 152 0
-152 150 0
-152 284 0
151 152 -150 264 0
-145 -283 153 0
-153 145 0
-153 283 0
-155 -284 154 0
-154 155 0
-154 284 0
153 154 150 -264 0
-155 -283 156 0
-156 155 0
-156 283 0
-155 -284 157 0
-157 155 0
-157 284 0
156 157 -155 265 0
-150 -283 158 0
-158 150 0
-158 283 0
-160 -284 159 0
-159 160 0
-159 284 0
158 159 155 -265 0
-160 -283 161 0
-161 160 0
-161 283 0
-160 -284 162 0
-162 160 0
-162 284 0
161 162 -160 266 0
-155 -283 163 0
-163 155 0
-163 283 0
-165 -284 164 0
-164 165 0
-164 284 0
163 164 160 -266 0
-165 -283 166 0
-166 165 0
-166 283 0
-165 -284 167 0
-167 165 0
-167 284 0
166 167 -165 267 0
-160 -283 168 0
-168 160 0
-168 283 0
-170 -284 169 0
-169 170 0
-169 284 0
168 169 165 -267 0
-170 -283 171 0
-171 170 0
-171 283 0
-170 -284 172 0
-172 170 0
-172 284 0
171 172 -170 268 0
-165 -283 173 0
-173 165 0
-173 283 0
-175 -284 174 0
-174 175 0
-174 284 0
173 174 170 -268 0
-175 -283 176 0
-176 175 0
-176 283 0
-175 -284 177 0
-177 175 0
-177 284 0
176 177 -175 269 0
-170 -283 178 0
-178 170 0
-178 283 0
-180 -284 179 0
-179 180 0
-179 284 0
178 179 175 -269 0
-180 -283 181 0
-181 180 0
-181 283 0
-180 -284 182 0
-182 180 0
-182 284 0
181 182 -180 270 0
-175 -283 183 0
-183 175 0
-183 283 0
-185 -284 184 0
-184 185 0
-184 284 0
183 184 180 -270 0
-185 -283 186 0
-186 185 0
-186 283 0
-185 -284 187 0
-187 185 0
-187 284 0
186 187 -185 271 0
-180 -283 188 0
-188 180 0
-188 283 0
-190 -284 189 0
-189 190 0
-189 284 0
188 189 185 -271 0
-190 -283 191 0
-191 190 0
-191 283 0
-190 -284 192 0
-192 190 0
-192 284 0
191 192 -190 272 0
-185 -283 193 0
-193 185 0
-193 283 0
-195 -284 194 0
-194 195 0
-194 284 0
193 194 190 -272 0
-195 -283 196 0
-196 195 0
-196 283 0
-195 -284 197 0
-197 195 0
-197 284 0
196 197 -195 273 0
-190 -283 198 0
-198 190 0
-198 283 0
-200 -284 199 0
-199 200 0
-199 284 0
198 199 195 -273 0
-200 -283 201 0
-201 200 0
-201 283 0
-200 -284 202 0
-202 200 0
-202 284 0
201 202 -200 274 0
-195 -283 203 0
-203 195 0
-203 283 0
-205 -284 204 0
-204 205 0
-204 284 0
203 204 200 -274 0
-205 -283 206 0
-206 205 0
-206 283 0
-205 -284 207 0
-207 205 0
-207 284 0
206 207 -205 275 0
-200 -283 208 0
-208 200 0
-208 283 0
-210 -284 209 0
-209 210 0
-209 284 0
208 209 205 -275 0
-210 -283 211 0
-211 210 0
-211 283 0
-210 -284 212 0
-212 210 0
-212 284 0
211 212 -210 276 0
-205 -283 213 0
-213 205 0
-213 283 0
-215 -284 214 0
-214 215 0
-214 284 0
213 214 210 -276 0
-215 -283 216 0
-216 215 0
-216 283 0
-215 -284 217 0
-217 215 0
-217 284 0
216 217 -215 277 0
-210 -283 218 0
-218 210 0
-218 283 0
-220 -284 219 0
-219 220 0
-219 284 0
218 219 215 -277 0
-220 -283 221 0
-221 220 0
-221 283 0
-220 -284 222 0
-222 220 0
-222 284 0
221 222 -220 278 0
-215 -283 223 0
-223 215 0
-223 283 0
-225 -284 224 0
-224 225 0
-224 284 0
223 224 220 -278 0
-225 -283 226 0
-226 225 0
-226 283 0
-225 -284 227 0
-227 225 0
-227 284 0
226 227 -225 279 0
-220 -283 228 0
-228 220 0
-228 283 0
-230 -284 229 0
-229 230 0
-229 284 0
228 229 225 -279 0
-230 -284 231 0
-231 230 0
-231 284 0
231 -230 280 0
-225 -283 232 0
-232 225 0
-232 283 0
232 230 -280 0
-281 -282 0
-283 -284 0
